
Gurobi 11.0.1 (win64) logging started Mon May 13 15:45:24 2024

Set parameter LogFile to value "output/solver_log34.txt"
Gurobi Optimizer version 11.0.1 build v11.0.1rc0 (win64 - Windows 11.0 (22631.2))

CPU model: 11th Gen Intel(R) Core(TM) i7-1165G7 @ 2.80GHz, instruction set [SSE2|AVX|AVX2|AVX512]
Thread count: 4 physical cores, 8 logical processors, using up to 8 threads

Optimize a model with 2386 rows, 511 columns and 44303 nonzeros
Model fingerprint: 0x8c7a7ce7
Variable types: 248 continuous, 263 integer (263 binary)
Coefficient statistics:
  Matrix range     [4e-01, 1e+05]
  Objective range  [1e+00, 1e+02]
  Bounds range     [1e+00, 1e+00]
  RHS range        [1e-02, 1e+05]

User MIP start produced solution with objective 77904.5 (0.00s)
User MIP start produced solution with objective 77904.5 (0.00s)
Loaded user MIP start with objective 77904.5

Presolve removed 155 rows and 142 columns
Presolve time: 0.05s
Presolved: 2231 rows, 369 columns, 42862 nonzeros
Variable types: 229 continuous, 140 integer (137 binary)

Root relaxation: cutoff, 11 iterations, 0.01 seconds (0.01 work units)

    Nodes    |    Current Node    |     Objective Bounds      |     Work
 Expl Unexpl |  Obj  Depth IntInf | Incumbent    BestBd   Gap | It/Node Time

     0     0     cutoff    0      77904.5223 77904.5223  0.00%     -    0s

Explored 1 nodes (11 simplex iterations) in 0.12 seconds (0.19 work units)
Thread count was 8 (of 8 available processors)

Solution count 2: 77904.5 77904.5 

Optimal solution found (tolerance 1.00e-04)
Best objective 7.790452225654e+04, best bound 7.790452225654e+04, gap 0.0000%
